certificates/rado_a11_c53_N22.cnf
c Rad2 upper bound instance: x1 + 11*x2 - x3 = 53, interval [1,22]
p cnf 22 88
1 3 5 0
-1 -3 -5 0
1 6 14 0
-1 -6 -14 0
2 4 5 0
-2 -4 -5 0
2 6 15 0
-2 -6 -15 0
3 5 0
-3 -5 0
3 6 16 0
-3 -6 -16 0
4 5 6 0
-4 -5 -6 0
4 6 17 0
-4 -6 -17 0
5 7 0
-5 -7 0
5 6 18 0
-5 -6 -18 0
5 6 8 0
-5 -6 -8 0
6 19 0
-6 -19 0
5 7 9 0
-5 -7 -9 0
6 7 20 0
-6 -7 -20 0
5 8 10 0
-5 -8 -10 0
6 8 21 0
-6 -8 -21 0
5 9 11 0
-5 -9 -11 0
6 9 22 0
-6 -9 -22 0
1 4 10 0
-1 -4 -10 0
5 10 12 0
-5 -10 -12 0
2 4 11 0
-2 -4 -11 0
5 11 13 0
-5 -11 -13 0
3 4 12 0
-3 -4 -12 0
5 12 14 0
-5 -12 -14 0
4 13 0
-4 -13 0
5 13 15 0
-5 -13 -15 0
4 5 14 0
-4 -5 -14 0
5 14 16 0
-5 -14 -16 0
4 6 15 0
-4 -6 -15 0
5 15 17 0
-5 -15 -17 0
4 7 16 0
-4 -7 -16 0
5 16 18 0
-5 -16 -18 0
4 8 17 0
-4 -8 -17 0
5 17 19 0
-5 -17 -19 0
4 9 18 0
-4 -9 -18 0
5 18 20 0
-5 -18 -20 0
4 10 19 0
-4 -10 -19 0
5 19 21 0
-5 -19 -21 0
4 11 20 0
-4 -11 -20 0
5 20 22 0
-5 -20 -22 0
1 3 21 0
-1 -3 -21 0
4 12 21 0
-4 -12 -21 0
2 3 22 0
-2 -3 -22 0
4 13 22 0
-4 -13 -22 0
