certificates/rado_a11_c53_N22.drat
-20 -22 0
d -5 -20 -22 0
-19 -21 0
10 12 19 0
-5 12 -6 0
5 19 -22 0
19 -22 0
d 5 19 -22 0
-22 0
5 6 0
-19 0
6 0
-5 0
3 0
7 0
17 0
20 0
21 0
-1 0
-16 0
0
